NAME:  vp6
TYPE: ATSP
COMMENT: 6 vp problem (Repetto)
DIMENSION:  7
EDGE_WEIGHT_TYPE: EXPLICIT
EDGE_WEIGHT_FORMAT: FULL_MATRIX
EDGE_WEIGHT_SECTION
0 21 11 29 6 14 34 
0 999 30 33 18 31 22 
0 30 999 37 15 22 44 
0 33 37 999 32 16 29 
0 18 15 32 999 19 39 
0 31 22 16 19 999 28 
0 22 44 29 39 28 999 
EOF